47157 46255 1 2 3 4 5 8 9 10 13 18 19 20 22 23 24 25 26 28 29 30 31 32 33 34 37 38 39 40 45 46 47 48 49 51 52 53 54 55 56 57 58 60 61 62 63 64 67 69 70 71 73 75 77 78 81 82 83 84 85 86 87 88 89 90 91 92 93 94 95 96 97 98 99 